db/data/108122234861414618279362096249623970.z3.out
unsat
-------------------
723.918109394
